nNurses = 56;
nHours = 29;
minHours = 7;
maxHours = 18;
maxConsec = 11;
maxPresence = 17;
demand = [27, 23, 18, 19, 21, 24, 21, 17, 13, 17, 14, 19, 20, 17, 21, 19, 22, 21, 23, 20, 21, 22, 21, 23, 22, 23, 19, 16, 12];
